
Gurobi 11.0.0 (mac64[arm]) logging started Tue Apr 23 11:56:31 2024

Set parameter LogFile to value "GurobiLogs/biomed_0.txt"
Set parameter TimeLimit to value 3600
Read MIP start from file WarmStarts/biomed_0.mst
Gurobi Optimizer version 11.0.0 build v11.0.0rc2 (mac64[arm] - Darwin 23.4.0 23E224)

CPU model: Apple M3 Pro
Thread count: 11 physical cores, 11 logical processors, using up to 11 threads

Optimize a model with 260 rows, 132 columns and 773 nonzeros
Model fingerprint: 0xd2bc379a
Variable types: 0 continuous, 132 integer (128 binary)
Coefficient statistics:
  Matrix range     [1e+00, 1e+02]
  Objective range  [1e+00, 1e+00]
  Bounds range     [1e+00, 1e+00]
  RHS range        [1e+00, 1e+02]
Found heuristic solution: objective 46.0000000
Presolve removed 260 rows and 132 columns
Presolve time: 0.00s
Presolve: All rows and columns removed

Explored 0 nodes (0 simplex iterations) in 0.00 seconds (0.00 work units)
Thread count was 1 (of 11 available processors)

Solution count 1: 46 

Optimal solution found (tolerance 1.00e-04)
Best objective 4.600000000000e+01, best bound 4.600000000000e+01, gap 0.0000%

Gurobi 11.0.0 (mac64[arm]) logging started Tue Apr 23 11:56:31 2024

Set parameter LogFile to value "GurobiLogs/biomed_0.txt"
Set parameter TimeLimit to value 3600
Unknown variable 'z[14,0]' in MIP start 0 - ignored
Unknown variable 'z[27,0]' in MIP start 0 - ignored
Unknown variable 'z[112,0]' in MIP start 0 - ignored
Unknown variable 'z[188,0]' in MIP start 0 - ignored
Unknown variable 'z[20,0]' in MIP start 0 - ignored
Unknown variable 'z[46,0]' in MIP start 0 - ignored
Unknown variable 'z[173,0]' in MIP start 0 - ignored
Unknown variable 'z[204,0]' in MIP start 0 - ignored
Unknown variable 'z[144,0]' in MIP start 0 - ignored
Unknown variable 'z[62,0]' in MIP start 0 - ignored
Unknown variable 'z[2,0]' in MIP start 0 - ignored
Unknown variable 'z[59,0]' in MIP start 0 - ignored
Unknown variable 'z[203,0]' in MIP start 0 - ignored
Unknown variable 'z[194,0]' in MIP start 0 - ignored
Unknown variable 'z[43,0]' in MIP start 0 - ignored
Unknown variable 'z[10,0]' in MIP start 0 - ignored
Unknown variable 'z[164,0]' in MIP start 0 - ignored
Unknown variable 'z[73,0]' in MIP start 0 - ignored
Unknown variable 'z[200,0]' in MIP start 0 - ignored
Unknown variable 'z[202,0]' in MIP start 0 - ignored
Unknown variable 'z[185,0]' in MIP start 0 - ignored
Unknown variable 'z[152,0]' in MIP start 0 - ignored
Unknown variable 'z[98,0]' in MIP start 0 - ignored
Unknown variable 'z[3,0]' in MIP start 0 - ignored
Unknown variable 'z[93,0]' in MIP start 0 - ignored
Unknown variable 'z[123,0]' in MIP start 0 - ignored
Unknown variable 'z[162,0]' in MIP start 0 - ignored
Unknown variable 'z[199,0]' in MIP start 0 - ignored
Unknown variable 'z[50,0]' in MIP start 0 - ignored
Unknown variable 'z[113,0]' in MIP start 0 - ignored
Unknown variable 'z[0,0]' in MIP start 0 - ignored
Unknown variable 'z[94,0]' in MIP start 0 - ignored
Unknown variable 'z[137,0]' in MIP start 0 - ignored
Unknown variable 'z[95,0]' in MIP start 0 - ignored
Unknown variable 'z[64,0]' in MIP start 0 - ignored
Unknown variable 'z[146,0]' in MIP start 0 - ignored
Unknown variable 'z[41,0]' in MIP start 0 - ignored
Unknown variable 'z[69,0]' in MIP start 0 - ignored
Unknown variable 'z[49,0]' in MIP start 0 - ignored
Unknown variable 'z[48,0]' in MIP start 0 - ignored
Unknown variable 'z[85,0]' in MIP start 0 - ignored
Unknown variable 'z[206,0]' in MIP start 0 - ignored
Unknown variable 'z[13,0]' in MIP start 0 - ignored
Unknown variable 'z[155,0]' in MIP start 0 - ignored
Unknown variable 'z[23,0]' in MIP start 0 - ignored
Unknown variable 'z[78,0]' in MIP start 0 - ignored
Unknown variable 'z[100,0]' in MIP start 0 - ignored
Unknown variable 'z[131,0]' in MIP start 0 - ignored
Unknown variable 'z[169,0]' in MIP start 0 - ignored
Unknown variable 'z[207,0]' in MIP start 0 - ignored
Unknown variable 'z[6,0]' in MIP start 0 - ignored
Unknown variable 'z[68,0]' in MIP start 0 - ignored
Unknown variable 'z[84,0]' in MIP start 0 - ignored
Unknown variable 'z[121,0]' in MIP start 0 - ignored
Unknown variable 'z[159,0]' in MIP start 0 - ignored
Unknown variable 'z[177,0]' in MIP start 0 - ignored
Unknown variable 'z[160,0]' in MIP start 0 - ignored
Unknown variable 'z[91,0]' in MIP start 0 - ignored
Unknown variable 'z[178,0]' in MIP start 0 - ignored
Unknown variable 'z[11,0]' in MIP start 0 - ignored
Unknown variable 'z[119,0]' in MIP start 0 - ignored
Unknown variable 'z[102,0]' in MIP start 0 - ignored
Unknown variable 'z[35,0]' in MIP start 0 - ignored
Unknown variable 'z[57,0]' in MIP start 0 - ignored
Unknown variable 'z[65,0]' in MIP start 0 - ignored
Unknown variable 'z[1,0]' in MIP start 0 - ignored
Unknown variable 'z[120,0]' in MIP start 0 - ignored
Unknown variable 'z[208,0]' in MIP start 0 - ignored
Unknown variable 'z[42,0]' in MIP start 0 - ignored
Unknown variable 'z[105,0]' in MIP start 0 - ignored
Unknown variable 'z[132,0]' in MIP start 0 - ignored
Unknown variable 'z[180,0]' in MIP start 0 - ignored
Unknown variable 'z[17,0]' in MIP start 0 - ignored
Unknown variable 'z[38,0]' in MIP start 0 - ignored
Unknown variable 'z[133,0]' in MIP start 0 - ignored
Unknown variable 'z[53,0]' in MIP start 0 - ignored
Unknown variable 'z[161,0]' in MIP start 0 - ignored
Unknown variable 'z[128,0]' in MIP start 0 - ignored
Unknown variable 'z[34,0]' in MIP start 0 - ignored
Unknown variable 'z[28,0]' in MIP start 0 - ignored
Unknown variable 'z[114,0]' in MIP start 0 - ignored
Unknown variable 'z[163,0]' in MIP start 0 - ignored
Unknown variable 'z[151,0]' in MIP start 0 - ignored
Unknown variable 'z[31,0]' in MIP start 0 - ignored
Unknown variable 'z[171,0]' in MIP start 0 - ignored
Unknown variable 'z[127,0]' in MIP start 0 - ignored
Unknown variable 'z[183,0]' in MIP start 0 - ignored
Unknown variable 'z[32,0]' in MIP start 0 - ignored
Unknown variable 'z[167,0]' in MIP start 0 - ignored
Unknown variable 'z[142,0]' in MIP start 0 - ignored
Unknown variable 'z[179,0]' in MIP start 0 - ignored
Unknown variable 'z[147,0]' in MIP start 0 - ignored
Unknown variable 'z[29,0]' in MIP start 0 - ignored
Unknown variable 'z[99,0]' in MIP start 0 - ignored
Unknown variable 'z[82,0]' in MIP start 0 - ignored
Unknown variable 'z[175,0]' in MIP start 0 - ignored
Unknown variable 'z[79,0]' in MIP start 0 - ignored
Unknown variable 'z[115,0]' in MIP start 0 - ignored
Unknown variable 'z[148,0]' in MIP start 0 - ignored
Unknown variable 'z[201,0]' in MIP start 0 - ignored
Unknown variable 'z[72,0]' in MIP start 0 - ignored
Unknown variable 'z[77,0]' in MIP start 0 - ignored
Unknown variable 'z[25,0]' in MIP start 0 - ignored
Unknown variable 'z[165,0]' in MIP start 0 - ignored
Unknown variable 'z[81,0]' in MIP start 0 - ignored
Unknown variable 'z[196,0]' in MIP start 0 - ignored
Unknown variable 'z[174,0]' in MIP start 0 - ignored
Unknown variable 'z[198,0]' in MIP start 0 - ignored
Unknown variable 'z[39,0]' in MIP start 0 - ignored
Unknown variable 'z[193,0]' in MIP start 0 - ignored
Unknown variable 'z[58,0]' in MIP start 0 - ignored
Unknown variable 'z[140,0]' in MIP start 0 - ignored
Unknown variable 'z[88,0]' in MIP start 0 - ignored
Unknown variable 'z[70,0]' in MIP start 0 - ignored
Unknown variable 'z[87,0]' in MIP start 0 - ignored
Unknown variable 'z[36,0]' in MIP start 0 - ignored
Unknown variable 'z[21,0]' in MIP start 0 - ignored
Unknown variable 'z[9,0]' in MIP start 0 - ignored
Unknown variable 'z[103,0]' in MIP start 0 - ignored
Unknown variable 'z[195,0]' in MIP start 0 - ignored
Unknown variable 'z[67,0]' in MIP start 0 - ignored
Unknown variable 'z[192,0]' in MIP start 0 - ignored
Unknown variable 'z[117,0]' in MIP start 0 - ignored
Unknown variable 'z[47,0]' in MIP start 0 - ignored
Unknown variable 'z[172,0]' in MIP start 0 - ignored
Unknown variable 'l[0]' in MIP start 0 - ignored
Unknown variable 'c[-1.0,0]' in MIP start 0 - ignored
Unknown variable 'c[1.0,0]' in MIP start 0 - ignored
Unknown variable 'n_k[-1.0,0]' in MIP start 0 - ignored
Unknown variable 'n_k[1.0,0]' in MIP start 0 - ignored
Unknown variable 'N[0]' in MIP start 0 - ignored
Unknown variable 'L[0]' in MIP start 0 - ignored
Read MIP start from file WarmStarts/biomed_0.mst
Warning for adding constraints: zero or small (< 1e-13) coefficients, ignored
Gurobi Optimizer version 11.0.0 build v11.0.0rc2 (mac64[arm] - Darwin 23.4.0 23E224)

CPU model: Apple M3 Pro
Thread count: 11 physical cores, 11 logical processors, using up to 11 threads

Optimize a model with 649 rows, 279 columns and 5309 nonzeros
Model fingerprint: 0x71cec614
Variable types: 1 continuous, 278 integer (257 binary)
Coefficient statistics:
  Matrix range     [3e-05, 2e+02]
  Objective range  [1e+00, 1e+00]
  Bounds range     [1e+00, 1e+00]
  RHS range        [1e+00, 2e+02]

No start values specified in MIP start

Presolve removed 258 rows and 131 columns
Presolve time: 0.01s
Presolved: 391 rows, 148 columns, 4175 nonzeros
Variable types: 1 continuous, 147 integer (142 binary)
Found heuristic solution: objective 45.0000000

Root relaxation: objective 0.000000e+00, 10 iterations, 0.00 seconds (0.00 work units)

    Nodes    |    Current Node    |     Objective Bounds      |     Work
 Expl Unexpl |  Obj  Depth IntInf | Incumbent    BestBd   Gap | It/Node Time

     0     0    0.00000    0    7   45.00000    0.00000   100%     -    0s
Another try with MIP start
     0     0    0.00000    0    9   45.00000    0.00000   100%     -    0s
H    0     0                      42.0000000    0.00000   100%     -    0s
     0     0    0.00000    0   61   42.00000    0.00000   100%     -    0s
H    0     0                      40.0000000    0.00000   100%     -    0s
     0     0    0.00000    0   48   40.00000    0.00000   100%     -    0s
H    0     0                      32.0000000    0.00000   100%     -    0s
H    0     0                      31.0000000    0.00000   100%     -    0s
     0     0    0.94378    0   26   31.00000    0.94378  97.0%     -    0s
     0     0    1.47402    0   36   31.00000    1.47402  95.2%     -    0s
     0     0    2.00000    0   17   31.00000    2.00000  93.5%     -    0s
H    0     0                      28.0000000    2.00000  92.9%     -    0s
H    0     0                      26.0000000    2.00000  92.3%     -    0s
     0     0    2.31777    0   16   26.00000    2.31777  91.1%     -    0s
H    0     0                      23.0000000    3.00000  87.0%     -    0s
     0     0    3.40373    0   43   23.00000    3.40373  85.2%     -    0s
     0     0    4.00000    0   36   23.00000    4.00000  82.6%     -    0s
     0     2    4.00000    0   24   23.00000    4.00000  82.6%     -    0s

Cutting planes:
  Gomory: 2
  Cover: 297
  MIR: 24
  StrongCG: 8
  GUB cover: 131
  Inf proof: 3
  RLT: 1
  Relax-and-lift: 9

Explored 491 nodes (10806 simplex iterations) in 0.47 seconds (0.41 work units)
Thread count was 11 (of 11 available processors)

Solution count 8: 23 26 28 ... 45

Optimal solution found (tolerance 1.00e-04)
Best objective 2.300000000000e+01, best bound 2.300000000000e+01, gap 0.0000%
